WARNING: for repeatability, setting FPU to use double precision
============================[ Problem Statistics ]=============================
|                                                                             |
|  Number of variables:           100                                         |
|  Number of clauses:             449                                         |
|  Parse time:                   0.00 s                                       |
|  Eliminated clauses:           0.00 Mb                                      |
|  Simplification time:          0.00 s                                       |
|                                                                             |
============================[ Search Statistics ]==============================
| Conflicts |          ORIGINAL         |          LEARNT          | Progress |
|           |    Vars  Clauses Literals |    Limit  Clauses Lit/Cl |          |
===============================================================================
|       100 |      94      428     1309 |      156      100      6 |  0.012 % |
===============================================================================
restarts              : 3
conflicts             : 249            (101096 /sec)
decisions             : 299            (0.00 % random) (121397 /sec)
propagations          : 5835           (2369062 /sec)
conflict literals     : 1425           (27.33 % deleted)
Memory used           : 13.00 MB
CPU time              : 0.002463 s

SATISFIABLE
